NAME : kroE100.9523.tour
COMMENT : Length = 9523
COMMENT : Found by LKH [Keld Helsgaun] Wed May 29 17:05:39 2013
TYPE : TOUR
DIMENSION : 20
TOUR_SECTION
74
47
73
52
8
48
33
22
43
100
53
37
6
13
75
9
10
49
64
76
-1
EOF
